p cnf 40 40
-20 -31 17 0
-11 -5 32 0
-35 -30 36 0
16 28 -13 0
-22 -2 -27 0
13 5 29 0
34 -20 -27 0
38 -9 -8 0
-14 17 29 0
-29 13 -19 0
-13 -3 30 0
-8 15 -21 0
-4 32 33 0
-27 -40 -5 0
-33 15 17 0
-31 23 -22 0
-34 38 21 0
-33 31 10 0
-3 -38 -20 0
-28 35 33 0
-27 25 -19 0
-24 -28 -31 0
10 12 34 0
-39 -8 -17 0
-28 -7 -6 0
29 34 -5 0
-3 13 -18 0
-9 -15 -28 0
13 -26 38 0
-27 -21 4 0
-35 -12 24 0
-37 4 22 0
19 -6 24 0
-21 23 -26 0
-37 5 -4 0
-18 9 -37 0
25 4 -9 0
-20 -23 -40 0
3 -25 -11 0
-2 -40 37 0
